block_table_value:
[[1 1 1 1 1 1 1 1]
 [1 1 1 1 1 1 1 1]
 [1 1 1 1 1 1 1 1]
 [1 1 1 1 1 1 1 1]
 [0 0 0 0 0 0 0 0]
 [0 0 0 0 0 0 0 0]
 [0 0 0 0 0 0 0 0]
 [0 0 0 0 0 0 0 0]]
Set parameter Username
Set parameter LicenseID to value 2603695
Academic license - for non-commercial use only - expires 2025-12-26
Gurobi Optimizer version 11.0.3 build v11.0.3rc0 (linux64 - "Debian GNU/Linux 12 (bookworm)")

CPU model: Intel(R) Xeon(R) Gold 6252 CPU @ 2.10GHz, instruction set [SSE2|AVX|AVX2|AVX512]
Thread count: 48 physical cores, 96 logical processors, using up to 32 threads

Optimize a model with 616 rows, 433 columns and 1888 nonzeros
Model fingerprint: 0x269b9e35
Variable types: 0 continuous, 433 integer (256 binary)
Coefficient statistics:
  Matrix range     [1e+00, 2e+00]
  Objective range  [1e+00, 1e+00]
  Bounds range     [1e+00, 1e+00]
  RHS range        [1e+00, 4e+00]
Presolve removed 96 rows and 48 columns
Presolve time: 0.00s
Presolved: 520 rows, 385 columns, 1696 nonzeros
Variable types: 0 continuous, 385 integer (368 binary)
Found heuristic solution: objective 11.0000000
Found heuristic solution: objective 10.0000000
Found heuristic solution: objective 9.0000000

Root relaxation: objective 3.000000e+00, 777 iterations, 0.02 seconds (0.02 work units)

    Nodes    |    Current Node    |     Objective Bounds      |     Work
 Expl Unexpl |  Obj  Depth IntInf | Incumbent    BestBd   Gap | It/Node Time

     0     0    3.00000    0  318    9.00000    3.00000  66.7%     -    0s
H    0     0                       7.0000000    3.00000  57.1%     -    0s
     0     0    4.00000    0  257    7.00000    4.00000  42.9%     -    0s
     0     0    4.80645    0  200    7.00000    4.80645  31.3%     -    0s
     0     0    5.00000    0  126    7.00000    5.00000  28.6%     -    0s
H    0     0                       6.0000000    5.00000  16.7%     -    0s
     0     0 infeasible    0         6.00000    6.00000  0.00%     -    0s

Cutting planes:
  Gomory: 4
  Zero half: 16
  RLT: 42

Explored 1 nodes (4756 simplex iterations) in 0.33 seconds (0.30 work units)
Thread count was 32 (of 96 available processors)

Solution count 5: 6 7 9 ... 11

Optimal solution found (tolerance 1.00e-04)
Best objective 6.000000000000e+00, best bound 6.000000000000e+00, gap 0.0000%
LP solve time: 0.3285503387451172 s
Optimal value: 6.0
LP result:
x_0_0_0: 1.0
x_0_0_1: 0.0
x_0_0_2: 0.0
x_0_0_3: 0.0
x_0_0_4: 0.0
x_0_0_5: 0.0
x_0_0_6: 0.0
x_0_0_7: 0.0
x_0_1_0: 0.0
x_0_1_1: 0.0
x_0_1_2: 0.0
x_0_1_3: 0.0
x_0_1_4: 1.0
x_0_1_5: 0.0
x_0_1_6: 0.0
x_0_1_7: 0.0
x_0_2_0: 1.0
x_0_2_1: 0.0
x_0_2_2: 0.0
x_0_2_3: 0.0
x_0_2_4: 0.0
x_0_2_5: 0.0
x_0_2_6: 0.0
x_0_2_7: 0.0
x_0_3_0: 0.0
x_0_3_1: 0.0
x_0_3_2: 0.0
x_0_3_3: 0.0
x_0_3_4: 0.0
x_0_3_5: 1.0
x_0_3_6: 0.0
x_0_3_7: 0.0
x_0_4_0: 0.0
x_0_4_1: 0.0
x_0_4_2: 0.0
x_0_4_3: 0.0
x_0_4_4: 1.0
x_0_4_5: 0.0
x_0_4_6: 0.0
x_0_4_7: 0.0
x_0_5_0: 0.0
x_0_5_1: 0.0
x_0_5_2: 0.0
x_0_5_3: 0.0
x_0_5_4: 0.0
x_0_5_5: 1.0
x_0_5_6: 0.0
x_0_5_7: 0.0
x_0_6_0: 0.0
x_0_6_1: 0.0
x_0_6_2: 0.0
x_0_6_3: 0.0
x_0_6_4: 0.0
x_0_6_5: 0.0
x_0_6_6: 0.0
x_0_6_7: 1.0
x_0_7_0: 0.0
x_0_7_1: 0.0
x_0_7_2: 0.0
x_0_7_3: 0.0
x_0_7_4: 1.0
x_0_7_5: 0.0
x_0_7_6: 0.0
x_0_7_7: 0.0
x_1_0_0: 0.0
x_1_0_1: 1.0
x_1_0_2: 0.0
x_1_0_3: 0.0
x_1_0_4: 0.0
x_1_0_5: 0.0
x_1_0_6: 0.0
x_1_0_7: 0.0
x_1_1_0: 0.0
x_1_1_1: 1.0
x_1_1_2: 0.0
x_1_1_3: 0.0
x_1_1_4: 0.0
x_1_1_5: 0.0
x_1_1_6: 0.0
x_1_1_7: 0.0
x_1_2_0: 0.0
x_1_2_1: 0.0
x_1_2_2: 1.0
x_1_2_3: 0.0
x_1_2_4: 0.0
x_1_2_5: 0.0
x_1_2_6: 0.0
x_1_2_7: 0.0
x_1_3_0: 0.0
x_1_3_1: 0.0
x_1_3_2: 0.0
x_1_3_3: 1.0
x_1_3_4: 0.0
x_1_3_5: 0.0
x_1_3_6: 0.0
x_1_3_7: 0.0
x_1_4_0: 0.0
x_1_4_1: 0.0
x_1_4_2: 0.0
x_1_4_3: 0.0
x_1_4_4: 0.0
x_1_4_5: 0.0
x_1_4_6: 1.0
x_1_4_7: 0.0
x_1_5_0: 0.0
x_1_5_1: 0.0
x_1_5_2: 0.0
x_1_5_3: 1.0
x_1_5_4: 0.0
x_1_5_5: 0.0
x_1_5_6: 0.0
x_1_5_7: 0.0
x_1_6_0: 0.0
x_1_6_1: 0.0
x_1_6_2: 1.0
x_1_6_3: 0.0
x_1_6_4: 0.0
x_1_6_5: 0.0
x_1_6_6: 0.0
x_1_6_7: 0.0
x_1_7_0: 0.0
x_1_7_1: 0.0
x_1_7_2: 0.0
x_1_7_3: 0.0
x_1_7_4: 0.0
x_1_7_5: 0.0
x_1_7_6: 1.0
x_1_7_7: 0.0
x_2_0_0: 0.0
x_2_0_1: 1.0
x_2_0_2: 0.0
x_2_0_3: 0.0
x_2_0_4: 0.0
x_2_0_5: 0.0
x_2_0_6: 0.0
x_2_0_7: 0.0
x_2_1_0: 0.0
x_2_1_1: 1.0
x_2_1_2: 0.0
x_2_1_3: 0.0
x_2_1_4: 0.0
x_2_1_5: 0.0
x_2_1_6: 0.0
x_2_1_7: 0.0
x_2_2_0: 0.0
x_2_2_1: 0.0
x_2_2_2: 1.0
x_2_2_3: 0.0
x_2_2_4: 0.0
x_2_2_5: 0.0
x_2_2_6: 0.0
x_2_2_7: 0.0
x_2_3_0: 0.0
x_2_3_1: 0.0
x_2_3_2: 0.0
x_2_3_3: 0.0
x_2_3_4: 0.0
x_2_3_5: 1.0
x_2_3_6: 0.0
x_2_3_7: 0.0
x_2_4_0: 0.0
x_2_4_1: 0.0
x_2_4_2: 0.0
x_2_4_3: 0.0
x_2_4_4: 0.0
x_2_4_5: 0.0
x_2_4_6: 1.0
x_2_4_7: 0.0
x_2_5_0: 0.0
x_2_5_1: 0.0
x_2_5_2: 0.0
x_2_5_3: 0.0
x_2_5_4: 0.0
x_2_5_5: 1.0
x_2_5_6: 0.0
x_2_5_7: 0.0
x_2_6_0: 0.0
x_2_6_1: 0.0
x_2_6_2: 1.0
x_2_6_3: 0.0
x_2_6_4: 0.0
x_2_6_5: 0.0
x_2_6_6: 0.0
x_2_6_7: 0.0
x_2_7_0: 0.0
x_2_7_1: 0.0
x_2_7_2: 0.0
x_2_7_3: 0.0
x_2_7_4: 0.0
x_2_7_5: 0.0
x_2_7_6: 1.0
x_2_7_7: 0.0
x_3_0_0: 1.0
x_3_0_1: 0.0
x_3_0_2: 0.0
x_3_0_3: 0.0
x_3_0_4: 0.0
x_3_0_5: 0.0
x_3_0_6: 0.0
x_3_0_7: 0.0
x_3_1_0: 0.0
x_3_1_1: 0.0
x_3_1_2: 0.0
x_3_1_3: 0.0
x_3_1_4: 1.0
x_3_1_5: 0.0
x_3_1_6: 0.0
x_3_1_7: 0.0
x_3_2_0: 1.0
x_3_2_1: 0.0
x_3_2_2: 0.0
x_3_2_3: 0.0
x_3_2_4: 0.0
x_3_2_5: 0.0
x_3_2_6: 0.0
x_3_2_7: 0.0
x_3_3_0: 0.0
x_3_3_1: 0.0
x_3_3_2: 0.0
x_3_3_3: 1.0
x_3_3_4: 0.0
x_3_3_5: 0.0
x_3_3_6: 0.0
x_3_3_7: 0.0
x_3_4_0: 0.0
x_3_4_1: 0.0
x_3_4_2: 0.0
x_3_4_3: 0.0
x_3_4_4: 0.0
x_3_4_5: 0.0
x_3_4_6: 0.0
x_3_4_7: 1.0
x_3_5_0: 0.0
x_3_5_1: 0.0
x_3_5_2: 0.0
x_3_5_3: 1.0
x_3_5_4: 0.0
x_3_5_5: 0.0
x_3_5_6: 0.0
x_3_5_7: 0.0
x_3_6_0: 0.0
x_3_6_1: 0.0
x_3_6_2: 0.0
x_3_6_3: 0.0
x_3_6_4: 0.0
x_3_6_5: 0.0
x_3_6_6: 0.0
x_3_6_7: 1.0
x_3_7_0: 0.0
x_3_7_1: 0.0
x_3_7_2: 0.0
x_3_7_3: 0.0
x_3_7_4: 0.0
x_3_7_5: 0.0
x_3_7_6: 0.0
x_3_7_7: 1.0
a_0_0: 1.0
a_0_1: 0.0
a_0_2: 0.0
a_0_3: 1.0
a_0_4: 0.0
a_0_5: 0.0
a_0_6: 0.0
a_0_7: 0.0
a_1_0: 0.0
a_1_1: 1.0
a_1_2: 1.0
a_1_3: 0.0
a_1_4: 0.0
a_1_5: 0.0
a_1_6: 0.0
a_1_7: 0.0
a_2_0: 0.0
a_2_1: 1.0
a_2_2: 1.0
a_2_3: 0.0
a_2_4: 0.0
a_2_5: 0.0
a_2_6: 0.0
a_2_7: 0.0
a_3_0: 0.0
a_3_1: 1.0
a_3_2: 0.0
a_3_3: 1.0
a_3_4: 0.0
a_3_5: 0.0
a_3_6: 0.0
a_3_7: 0.0
a_4_0: 1.0
a_4_1: 0.0
a_4_2: 0.0
a_4_3: 1.0
a_4_4: -0.0
a_4_5: 0.0
a_4_6: 0.0
a_4_7: 0.0
a_5_0: 1.0
a_5_1: 0.0
a_5_2: 1.0
a_5_3: 0.0
a_5_4: 0.0
a_5_5: -0.0
a_5_6: 0.0
a_5_7: 0.0
a_6_0: 0.0
a_6_1: 1.0
a_6_2: 1.0
a_6_3: 0.0
a_6_4: 0.0
a_6_5: 0.0
a_6_6: -0.0
a_6_7: 0.0
a_7_0: 1.0
a_7_1: 0.0
a_7_2: 0.0
a_7_3: 1.0
a_7_4: 0.0
a_7_5: 0.0
a_7_6: 0.0
a_7_7: -0.0
b_0_0: 1.0
b_0_1: 0.0
b_0_2: 1.0
b_0_3: 0.0
b_0_4: 0.0
b_0_5: 0.0
b_0_6: 0.0
b_0_7: 0.0
b_1_0: 1.0
b_1_1: 1.0
b_1_2: 0.0
b_1_3: 0.0
b_1_4: 0.0
b_1_5: 0.0
b_1_6: 0.0
b_1_7: 0.0
b_2_0: 0.0
b_2_1: 0.0
b_2_2: 1.0
b_2_3: 0.0
b_2_4: 0.0
b_2_5: 0.0
b_2_6: 1.0
b_2_7: 0.0
b_3_0: 0.0
b_3_1: 0.0
b_3_2: 0.0
b_3_3: 1.0
b_3_4: 0.0
b_3_5: 1.0
b_3_6: 0.0
b_3_7: 0.0
b_4_0: 0.0
b_4_1: 1.0
b_4_2: 0.0
b_4_3: 0.0
b_4_4: 1.0
b_4_5: 0.0
b_4_6: 0.0
b_4_7: 1.0
b_5_0: 0.0
b_5_1: 0.0
b_5_2: 0.0
b_5_3: 1.0
b_5_4: 0.0
b_5_5: 1.0
b_5_6: 0.0
b_5_7: 0.0
b_6_0: 0.0
b_6_1: 0.0
b_6_2: 0.0
b_6_3: 0.0
b_6_4: 1.0
b_6_5: 0.0
b_6_6: 1.0
b_6_7: 1.0
b_7_0: 0.0
b_7_1: 0.0
b_7_2: 0.0
b_7_3: 0.0
b_7_4: 1.0
b_7_5: 0.0
b_7_6: 1.0
b_7_7: 1.0
A_0: 1.0
B_0: 1.0
C_0: 3.0
D_0: 1.0
Cin_0: 6.0
Cout_0: 6.0
A_1: 1.0
B_1: 1.0
C_1: 3.0
D_1: 1.0
Cin_1: 6.0
Cout_1: 6.0
A_2: 1.0
B_2: 1.0
C_2: 3.0
D_2: 1.0
Cin_2: 6.0
Cout_2: 6.0
A_3: 1.0
B_3: 1.0
C_3: 3.0
D_3: 1.0
Cin_3: 6.0
Cout_3: 6.0
A_4: 2.0
B_4: 2.0
C_4: 0.0
D_4: 2.0
Cin_4: 6.0
Cout_4: 6.0
A_5: 2.0
B_5: 1.0
C_5: 0.0
D_5: 1.0
Cin_5: 4.0
Cout_5: 4.0
A_6: 2.0
B_6: 2.0
C_6: 0.0
D_6: 2.0
Cin_6: 6.0
Cout_6: 6.0
A_7: 2.0
B_7: 2.0
C_7: 0.0
D_7: 2.0
Cin_7: 6.0
Cout_7: 6.0
Comm_Volume: 6.0
Allocation Matrix:
0  4  0  5  4  5  7  4  
1  1  2  3  6  3  2  6  
1  1  2  5  6  5  2  6  
0  4  0  3  7  3  7  7  
/  /  /  /  /  /  /  /  
/  /  /  /  /  /  /  /  
/  /  /  /  /  /  /  /  
/  /  /  /  /  /  /  /  
